c A SAT instance generated from a 3-CNF formula that had 24 clauses and 6 variables
p cnf 6 24
-1 -2 -6 0
-3 5 1 0
-5 3 -6 0
-6 3 -1 0
-6 -5 2 0
5 1 2 0
-5 -2 3 0
-1 3 5 0
3 -2 5 0
-4 -5 6 0
-4 1 -3 0
2 -1 4 0
-4 6 5 0
5 2 1 0
-6 1 3 0
5 -2 4 0
6 -3 2 0
1 2 6 0
-3 -6 4 0
1 2 -6 0
-2 4 5 0
-4 5 -3 0
-1 4 -2 0
6 4 2 0
